107964
0,12,36,17,64,49,3,52,82,7,27,34,15,37,1,29,78,5,60,62,38,51,40,77,68,14,24,41,54,22,11,2,42,56,33,48,46,59,80,71,50,55,6,26,32,10,74,39,73,31,81,43,58,67,21,4,18,30,23,47,20,8,76,57,16,19,66,75,13,69,61,25,35,65,70,53,45,79,44,72,63,28,9,0